Name: EasyAcademy4
Courses: 136
Rooms: 29
Days: 5
Periods_per_day: 11
Curricula: 29
Constraints: 1

COURSES:
c116 t141 5 2 45
c117 t142 6 3 25
c118 t143 7 3 90
c119 t144 7 3 220
c120 t145 11 4 190
c121 t146 9 4 225
c123 t148 9 3 184
c124 t149 7 3 110
c125 t150 4 2 184
c126 t151 3 1 74
c127 t152 3 1 110
c128 t149 5 2 295
c129 no_teacher1 7 3 46
c130 t154 5 2 115
c131 t154 1 1 55
c132 t154 1 1 55
c133 t155 5 2 110
c134 t155 2 1 55
c135 t155 2 1 55
c136 t156 7 3 90
c137 t157 5 2 45
c138 t158 9 3 20
c139 t159 9 3 20
c140 t160 5 2 110
c141 t148 1 1 10
c142 t161 8 4 30
c143 t162 5 2 110
c144 t163 5 2 10
c145 t164 9 3 132
c146 t157 5 2 25
c147 t165 7 3 30
c149 t167 2 1 30
c150 t167 3 1 30
c151 t168 2 1 130
c152 t168 3 1 60
c153 t169 4 2 220
c154 t169 5 1 110
c155 t170 4 2 110
c156 t170 5 1 110
c157 t171 5 2 25
c158 t172 1 1 10
c159 t173 5 2 25
c160 t172 7 3 46
c161 t174 5 2 224
c162 t175 7 3 20
c163 t176 7 3 74
c164 t177 7 3 185
c165 t178 9 3 224
c166 t179 5 2 220
c167 t155 3 2 110
c168 t155 2 1 55
c169 t155 2 1 55
c170 t180 5 2 132
c171 t181 7 2 110
c172 t181 3 1 110
c173 t182 7 3 90
c174 t183 5 2 155
c175 t184 7 2 55
c176 t185 7 3 80
c177 t186 7 3 110
c178 t187 7 3 215
c179 t188 7 2 45
c180 t189 7 2 45
c181 t190 5 2 220
c182 t190 1 1 10
c183 t191 5 2 100
c184 t192 7 2 20
c185 t193 7 3 90
c186 t194 5 2 20
c187 t195 7 3 26
c188 t196 3 1 150
c189 t197 3 1 80
c190 t197 3 1 110
c191 t196 3 1 70
c192 t173 3 1 46
c193 t198 4 1 50
c194 t199 2 1 30
c195 t199 4 1 30
c196 t200 5 2 45
c197 t202 3 1 50
c198 t202 2 1 50
c199 t203 5 2 20
c200 t205 1 1 10
c201 t206 1 1 10
c202 t207 7 3 215
c203 t207 7 3 224
c204 t209 1 1 10
c205 t210 5 2 30
c206 t143 1 1 10
c207 t211 1 1 10
c208 t171 9 3 30
c209 t212 7 3 30
c210 t213 9 3 80
c211 t214 5 2 20
c212 t152 5 2 50
c213 t203 5 2 80
c214 t215 4 2 50
c215 t215 3 1 50
c216 t216 1 1 10
c217 t216 1 1 10
c218 t217 8 3 45
c219 t218 1 1 10
c220 t219 7 2 50
c221 t165 5 2 30
c222 t220 5 2 46
c223 t221 7 2 30
c224 t156 4 1 20
c225 t156 3 1 20
c226 t222 5 2 50
c227 t223 9 3 50
c228 t224 1 1 10
c229 t225 5 2 50
c230 t226 3 1 50
c231 t227 3 1 50
c232 t228 7 1 40
c233 t229 5 2 26
c234 t195 11 4 90
c235 t230 7 3 80
c236 t231 6 3 50
c237 t231 2 1 50
c238 t232 9 3 132
c239 t233 7 2 30
c240 t234 7 2 30
c241 t235 5 2 106
c242 t236 2 1 106
c243 t237 7 2 30
c244 t238 7 2 30
c245 t177 4 2 170
c246 t141 5 1 145
c247 t162 5 3 60
c248 t200 10 3 30
c249 t201 10 3 30
c958 t245 5 2 50
c959 t294 5 2 50
c960 t180 5 1 25
c2638 t168 5 1 50

ROOMS:
r166 10
r174 145
r175 295
r476 30
r176 46
r177 46
r178 222
r179 104
r180 69
r181 210
r182 76
r183 47
r184 140
r185 102
r186 95
r187 48
r188 55
r189 55
r190 87
r191 84
r192 140
r193 30
r411 30
r168 25
r170 70
r171 221
r220 234
r221 165
r169 25

CURRICULA:
cu15 8 c116 c197 c198 c219 c220 c227 c245 c246
cu17 6 c117 c157 c158 c159 c241 c242
cu19 11 c149 c150 c194 c195 c200 c201 c207 c216 c217 c245 c246
cu20 8 c178 c202 c205 c206 c209 c221 c239 c240
cu21 5 c118 c128 c136 c234 c247
cu22 7 c128 c129 c160 c183 c192 c222 c228
cu24 3 c223 c243 c244
cu25 4 c175 c187 c232 c233
cu26 4 c138 c139 c162 c184
cu27 3 c124 c210 c213
cu28 6 c214 c215 c236 c237 c241 c242
cu29 4 c124 c142 c248 c249
cu30 5 c146 c147 c175 c245 c246
cu31 5 c119 c166 c181 c182 c191
cu32 5 c119 c166 c181 c182 c188
cu33 4 c164 c174 c178 c202
cu35 5 c137 c179 c180 c196 c218
cu36 3 c120 c176 c189
cu37 4 c123 c125 c126 c163
cu38 5 c120 c171 c172 c177 c190
cu40 11 c121 c130 c131 c132 c133 c134 c135 c153 c154 c155 c156
cu41 4 c128 c161 c165 c203
cu122 7 c144 c186 c199 c211 c224 c225 c960
cu124 5 c164 c174 c178 c202 c204
cu126 5 c141 c208 c235 c241 c242
cu128 8 c123 c125 c127 c140 c143 c167 c168 c169
cu176 7 c193 c212 c226 c229 c230 c231 c235
cu179 5 c151 c152 c173 c183 c185
cu180 7 c145 c151 c170 c238 c958 c959 c2638

UNAVAILABILITY_CONSTRAINTS:
c116 0 0

END.
